p cnf 14 29
-14 13 8 0
14 12 -7 0
14 10 6 0
14 4 2 0
13 -11 4 0
13 -7 4 0
-13 -6 -4 0
-13 -6 -3 0
13 2 -1 0
-12 10 -7 0
-12 -10 -3 0
-12 -7 4 0
-12 6 4 0
-12 -6 -2 0
12 -5 -1 0
11 -9 8 0
11 2 1 0
10 -5 -3 0
9 -7 1 0
9 -6 5 0
9 -5 1 0
-8 -6 -5 0
8 -5 -3 0
8 -4 3 0
8 4 -1 0
-7 2 -1 0
7 2 -1 0
-6 5 4 0
-3 2 1 0
